
Welcome to IBM(R) ILOG(R) CPLEX(R) Interactive Optimizer 22.1.1.0
  with Simplex, Mixed Integer & Barrier Optimizers
5725-A06 5725-A29 5724-Y48 5724-Y49 5724-Y54 5724-Y55 5655-Y21
Copyright IBM Corp. 1988, 2022.  All Rights Reserved.

Type 'help' for a list of available commands.
Type 'help' followed by a command name for more
information on commands.

CPLEX> Selected objective sense:  MINIMIZE
Selected objective  name:  00000000
Selected RHS        name:  RHS1
Selected bound      name:  BOUND
Problem 'ee.mps' read.
Read time = 0.03 sec. (3.14 ticks)
CPLEX> New value for time limit in seconds: 7200
CPLEX> New value for parallel optimization mode: -1
CPLEX> New value for default parallel thread count: 40
CPLEX> New value for mixed integer optimality gap tolerance: 1e-13
CPLEX> Version identifier: 22.1.1.0 | 2022-11-28 | 9160aff4d
CPXPARAM_Threads                                 40
CPXPARAM_Parallel                                -1
CPXPARAM_TimeLimit                               7200
CPXPARAM_MIP_Tolerances_MIPGap                   1e-13
Found incumbent of value 0.000000 after 0.00 sec. (0.31 ticks)
Tried aggregator 2 times.
MIP Presolve eliminated 183 rows and 2745 columns.
MIP Presolve modified 5862 coefficients.
Aggregator did 713 substitutions.
Reduced MIP has 3624 rows, 7744 columns, and 28665 nonzeros.
Reduced MIP has 7744 binaries, 0 generals, 0 SOSs, and 0 indicators.
Presolve time = 0.07 sec. (68.82 ticks)
Probing time = 0.03 sec. (6.00 ticks)
Tried aggregator 1 time.
Detecting symmetries...
Reduced MIP has 3624 rows, 7744 columns, and 28665 nonzeros.
Reduced MIP has 7744 binaries, 0 generals, 0 SOSs, and 0 indicators.
Presolve time = 0.03 sec. (21.93 ticks)
Probing time = 0.02 sec. (5.79 ticks)
Clique table members: 18557.
MIP emphasis: balance optimality and feasibility.
MIP search method: dynamic search.
Parallel mode: opportunistic, using up to 40 threads.
Root relaxation solution time = 0.14 sec. (118.11 ticks)

        Nodes                                         Cuts/
   Node  Left     Objective  IInf  Best Integer    Best Bound    ItCnt     Gap

*     0+    0                            0.0000  -1.31000e+13              --- 
*     0+    0                      -3.19000e+12  -1.31000e+13           310.66%
*     0+    0                      -3.30000e+12  -1.31000e+13           296.97%
*     0+    0                      -4.40000e+12  -1.31000e+13           197.73%
*     0+    0                      -4.40000e+12  -1.31000e+13           197.73%
*     0+    0                      -5.50000e+12  -1.31000e+13           138.18%
*     0+    0                      -7.70000e+12  -1.31000e+13            70.13%
      0     0  -1.30900e+13   116  -7.70000e+12  -1.30900e+13     2606   70.00%
*     0+    0                      -1.30900e+13  -1.30900e+13             0.00%
      0     0  -1.30900e+13   152  -1.30900e+13      Cuts: 90     2924    0.00%
*     0+    0                      -1.30900e+13  -1.30900e+13             0.00%
      0     0  -1.30900e+13   230  -1.30900e+13      Cuts: 92     3223    0.00%
*     0+    0                      -1.30900e+13  -1.30900e+13             0.00%
*     0+    0                      -1.30900e+13  -1.30900e+13             0.00%
*     0+    0                      -1.30900e+13  -1.30900e+13             0.00%
*     0+    0                      -1.30900e+13  -1.30900e+13             0.00%
      0     2  -1.30900e+13   225  -1.30900e+13  -1.30900e+13     3223    0.00%
Elapsed time = 2.61 sec. (1308.44 ticks, tree = 0.02 MB, solutions = 17)
    265    58        cutoff        -1.30900e+13  -1.30900e+13    35428    0.00%
    604    63        cutoff        -1.30900e+13  -1.30900e+13    56386    0.00%
   1260   168        cutoff        -1.30900e+13  -1.30900e+13    93289    0.00%
   1925   259  -1.30900e+13   188  -1.30900e+13  -1.30900e+13   214098    0.00%
   2208   240  -1.30900e+13   178  -1.30900e+13  -1.30900e+13   131384    0.00%
   2463   247  -1.30900e+13   143  -1.30900e+13  -1.30900e+13   164889    0.00%
   2668   196  -1.30900e+13    29  -1.30900e+13  -1.30900e+13   249611    0.00%
   2768    32        cutoff        -1.30900e+13  -1.30900e+13   290531    0.00%
   2794     8        cutoff        -1.30900e+13  -1.30900e+13   318593    0.00%

GUB cover cuts applied:  6
Clique cuts applied:  15
Cover cuts applied:  786
Flow cuts applied:  2
Mixed integer rounding cuts applied:  14
Zero-half cuts applied:  18
Lift and project cuts applied:  3
Gomory fractional cuts applied:  22

Root node processing (before b&c):
  Real time             =    1.41 sec. (1296.03 ticks)
Parallel b&c, 40 threads:
  Real time             =    4.01 sec. (2185.32 ticks)
  Sync time (average)   =    1.38 sec.
  Wait time (average)   =    0.00 sec.
                          ------------
Total (root+branch&cut) =    5.43 sec. (3481.35 ticks)

Solution pool: 18 solutions saved.

MIP - Integer optimal solution:  Objective = -1.3089998889e+13
Solution time =    5.55 sec.  Iterations = 323251  Nodes = 2795
Deterministic time = 3481.38 ticks  (626.89 ticks/sec)

CPLEX> Solution 'p19' written to file 'ee.sol'.
CPLEX> 